10987.0 1161158.0 
11030.0 1155224.0 
10962.0 1179059.0 
10966.0 1175792.0 
11288.0 1151950.0 
11286.0 1152072.0 
10975.0 1174515.0 
10954.0 1181069.0 
10983.0 1162295.0 
10943.0 1185224.0 
11321.0 1151653.0 
10990.0 1160636.0 
11083.0 1153783.0 
11177.0 1152259.0 
